(set-logic QF_FP)
(set-option :produce-models true)
(set-info :source |Random FP created by PyMPF|)
(set-info :category random)
(set-info :status sat)
(declare-const x Float32)
(assert (= x (_ +zero 8 24)))
(declare-const result Float32)
(assert (= result (fp.roundToIntegral RNE x)))
(assert (= result ((_ to_fp 8 24) #x00000000)))
(check-sat)
(exit)
